NAME : amz0416.118349_118349.tour
COMMENT : Cost = 118349_118349
COMMENT : Found by LKH-AMZ [Keld Helsgaun] Sun May 11 14:31:41 2025
COMMENT : TW viol.: 0 #: 0
TYPE : TOUR
DIMENSION : 165
TOUR_SECTION
97
36
145
39
69
65
135
28
119
143
38
142
123
70
23
22
138
55
29
27
6
127
132
155
18
49
92
19
115
17
33
98
25
48
41
165
110
26
43
147
63
50
141
162
113
96
130
134
137
53
44
30
157
164
11
15
67
76
107
109
31
9
106
149
128
140
94
144
125
56
120
87
54
52
158
80
4
68
93
16
7
163
84
148
105
1
160
86
75
101
2
78
133
24
13
114
64
112
116
57
102
151
118
108
139
73
159
150
40
161
156
51
90
89
146
61
3
77
122
95
103
71
152
58
20
5
21
129
45
88
117
111
34
99
37
100
32
46
154
131
59
82
79
153
12
91
62
47
10
126
8
42
124
66
81
83
60
121
104
35
85
72
14
74
136
-1
EOF
